30
1 0 31
2 0 29
2 1 11
3 0 33
3 1 33
3 2 12
4 0 32
4 1 32
4 2 24
4 3 19
5 0 29
5 1 1
5 2 24
5 3 25
5 4 10
6 0 5
6 1 8
6 2 4
6 3 20
6 4 17
6 5 11
7 0 30
7 1 14
7 2 2
7 3 15
7 4 10
7 5 20
7 6 32
8 0 4
8 1 26
8 2 8
8 3 25
8 4 10
8 5 16
8 6 14
8 7 2
9 0 4
9 1 28
9 2 14
9 3 26
9 4 16
9 5 29
9 6 18
9 7 28
9 8 20
10 0 9
10 1 7
10 2 6
10 3 21
10 4 20
10 5 13
10 6 4
10 7 9
10 8 10
10 9 25
11 0 31
11 1 6
11 2 28
11 3 6
11 4 19
11 5 21
11 6 27
11 7 23
11 8 16
11 9 23
11 10 16
12 0 13
12 1 9
12 2 28
12 3 31
12 4 14
12 5 23
12 6 29
12 7 5
12 8 31
12 9 29
12 10 19
12 11 26
13 0 21
13 1 2
13 2 3
13 3 25
13 4 5
13 5 5
13 6 24
13 7 18
13 8 15
13 9 1
13 10 23
13 11 2
13 12 10
14 0 3
14 1 30
14 2 16
14 3 31
14 4 25
14 5 13
14 6 9
14 7 33
14 8 21
14 9 23
14 10 4
14 11 2
14 12 4
14 13 32
15 0 10
15 1 7
15 2 28
15 3 32
15 4 26
15 5 5
15 6 30
15 7 27
15 8 2
15 9 32
15 10 16
15 11 21
15 12 28
15 13 28
15 14 11
16 0 23
16 1 21
16 2 27
16 3 12
16 4 24
16 5 26
16 6 16
16 7 29
16 8 17
16 9 9
16 10 1
16 11 31
16 12 28
16 13 19
16 14 23
16 15 7
17 0 8
17 1 15
17 2 10
17 3 22
17 4 26
17 5 33
17 6 32
17 7 22
17 8 30
17 9 21
17 10 20
17 11 24
17 12 26
17 13 16
17 14 8
17 15 24
17 16 17
18 0 31
18 1 5
18 2 11
18 3 26
18 4 16
18 5 3
18 6 30
18 7 12
18 8 31
18 9 18
18 10 15
18 11 6
18 12 30
18 13 12
18 14 31
18 15 1
18 16 2
18 17 15
19 0 9
19 1 31
19 2 16
19 3 12
19 4 33
19 5 32
19 6 1
19 7 32
19 8 30
19 9 33
19 10 20
19 11 10
19 12 22
19 13 19
19 14 6
19 15 22
19 16 31
19 17 30
19 18 3
20 0 13
20 1 19
20 2 28
20 3 22
20 4 19
20 5 1
20 6 1
20 7 3
20 8 9
20 9 26
20 10 28
20 11 22
20 12 16
20 13 20
20 14 26
20 15 12
20 16 2
20 17 5
20 18 12
20 19 5
21 0 12
21 1 21
21 2 19
21 3 11
21 4 16
21 5 8
21 6 19
21 7 1
21 8 2
21 9 3
21 10 18
21 11 21
21 12 2
21 13 3
21 14 30
21 15 22
21 16 7
21 17 30
21 18 11
21 19 18
21 20 2
22 0 27
22 1 26
22 2 30
22 3 12
22 4 18
22 5 16
22 6 28
22 7 19
22 8 28
22 9 23
22 10 9
22 11 3
22 12 26
22 13 23
22 14 16
22 15 17
22 16 31
22 17 6
22 18 24
22 19 28
22 20 19
22 21 4
23 0 21
23 1 12
23 2 7
23 3 31
23 4 29
23 5 8
23 6 23
23 7 5
23 8 26
23 9 10
23 10 19
23 11 2
23 12 10
23 13 14
23 14 22
23 15 11
23 16 2
23 17 27
23 18 7
23 19 8
23 20 23
23 21 26
23 22 19
24 0 31
24 1 19
24 2 23
24 3 23
24 4 7
24 5 30
24 6 20
24 7 28
24 8 17
24 9 2
24 10 19
24 11 31
24 12 6
24 13 28
24 14 15
24 15 5
24 16 2
24 17 16
24 18 29
24 19 27
24 20 9
24 21 12
24 22 31
24 23 12
25 0 10
25 1 32
25 2 8
25 3 25
25 4 8
25 5 33
25 6 23
25 7 13
25 8 16
25 9 23
25 10 11
25 11 25
25 12 5
25 13 19
25 14 20
25 15 2
25 16 12
25 17 6
25 18 10
25 19 22
25 20 1
25 21 23
25 22 33
25 23 8
25 24 19
26 0 14
26 1 14
26 2 23
26 3 28
26 4 9
26 5 14
26 6 19
26 7 13
26 8 11
26 9 15
26 10 5
26 11 16
26 12 20
26 13 10
26 14 22
26 15 25
26 16 14
26 17 7
26 18 18
26 19 17
26 20 29
26 21 1
26 22 32
26 23 19
26 24 15
26 25 32
27 0 30
27 1 21
27 2 1
27 3 32
27 4 29
27 5 17
27 6 6
27 7 23
27 8 14
27 9 18
27 10 29
27 11 4
27 12 24
27 13 1
27 14 19
27 15 17
27 16 6
27 17 16
27 18 30
27 19 20
27 20 28
27 21 20
27 22 25
27 23 31
27 24 18
27 25 10
27 26 5
28 0 14
28 1 24
28 2 22
28 3 15
28 4 3
28 5 7
28 6 4
28 7 25
28 8 19
28 9 1
28 10 15
28 11 11
28 12 31
28 13 8
28 14 24
28 15 23
28 16 10
28 17 24
28 18 13
28 19 21
28 20 12
28 21 25
28 22 4
28 23 4
28 24 15
28 25 11
28 26 29
28 27 30
29 0 11
29 1 10
29 2 12
29 3 24
29 4 6
29 5 30
29 6 7
29 7 26
29 8 31
29 9 6
29 10 5
29 11 2
29 12 25
29 13 14
29 14 2
29 15 3
29 16 15
29 17 15
29 18 25
29 19 23
29 20 25
29 21 26
29 22 33
29 23 1
29 24 9
29 25 21
29 26 30
29 27 4
29 28 5
